TIP.Original.Linear/isaplanner_prop_31.smt2
(set-logic HORN)
(declare-datatypes ((Nat_17 0)) (((Z_49 ) (S_17 (projS_16 Nat_17)))))
(declare-fun diseqNat_17 (Nat_17 Nat_17) Bool)
(declare-fun projS_17 (Nat_17 Nat_17) Bool)
(declare-fun isZ_17 (Nat_17) Bool)
(declare-fun isS_17 (Nat_17) Bool)
(assert (forall ((x_530 Nat_17))
	(projS_17 x_530 (S_17 x_530))))
(assert (isZ_17 Z_49))
(assert (forall ((x_532 Nat_17))
	(isS_17 (S_17 x_532))))
(assert (forall ((x_533 Nat_17))
	(diseqNat_17 Z_49 (S_17 x_533))))
(assert (forall ((x_534 Nat_17))
	(diseqNat_17 (S_17 x_534) Z_49)))
(assert (forall ((x_535 Nat_17) (x_536 Nat_17))
	(=> (diseqNat_17 x_535 x_536)
	    (diseqNat_17 (S_17 x_535) (S_17 x_536)))))
(declare-fun min_0 (Nat_17 Nat_17 Nat_17) Bool)
(assert (forall ((x_521 Nat_17) (y_42 Nat_17) (z_50 Nat_17))
	(=> (min_0 x_521 z_50 y_42)
	    (min_0 (S_17 x_521) (S_17 z_50) (S_17 y_42)))))
(assert (forall ((z_50 Nat_17))
	(min_0 Z_49 (S_17 z_50) Z_49)))
(assert (forall ((y_41 Nat_17))
	(min_0 Z_49 Z_49 y_41)))
(assert (forall ((x_524 Nat_17) (x_525 Nat_17) (x_526 Nat_17) (x_527 Nat_17) (a_0 Nat_17) (b_0 Nat_17) (c_0 Nat_17))
	(=>	(and true
			(diseqNat_17 x_525 x_527)
			(min_0 x_524 a_0 b_0)
			(min_0 x_525 x_524 c_0)
			(min_0 x_526 b_0 c_0)
			(min_0 x_527 a_0 x_526))
		false)))
(check-sat)
